c instance by G2
c solution = 11111101101
c Known solution cost is 457 
p cnf 11 30
w 25 58 3 39 10 55 50 59 49 96 13
3 6 -5 0
-4 -9 8 0
-5 -6 4 0
7 2 -11 0
6 5 -10 0
-7 -6 -4 0
-3 1 -11 0
6 9 5 0
-6 1 -10 0
11 -7 6 0
6 -11 8 0
-9 5 1 0
-10 4 -1 0
-2 -10 7 0
2 8 10 0
-1 5 -7 0
11 -4 -6 0
-10 -9 -6 0
-8 6 7 0
-1 9 -4 0
-1 -11 9 0
3 -4 -1 0
5 10 7 0
7 9 -8 0
4 -9 -3 0
-8 2 5 0
8 -11 -2 0
8 9 7 0
6 -1 3 0
-6 -8 9 0
